 &bands
    prefix  = 'si'
    outdir = '$TMP_DIR'
    filband = '$TMP_DIR/sibands.dat'
    lsym=.true.,
 /
